; benchmark generated from python API
(set-info :status unknown)
(declare-datatypes ((IntState 0)) (((Mk1 (val1 Int)) (Mk2 (val2 Int)))))
 (declare-fun c_main_~i~6 () Int)
(declare-fun c_main_~j~6 () Int)
(declare-fun c_main_~k~6 () Int)
(assert
 (let (($x22 (<= c_main_~i~6 3)))
 (let (($x90 (exists ((v_nnf_96_st IntState) (val!14 Int) )(let ((?x56 (val2 v_nnf_96_st)))
 (let (($x5 (<= ?x56 4)))
 (let (($x42 (and (<= (+ ?x56 2) c_main_~k~6) (<= c_main_~j~6 (+ (* 2 ?x56) 2)) $x5)))
 (let (($x52 (not (= v_nnf_96_st (Mk1 val!14)))))
 (and $x52 $x42))))))
 ))
 (let (($x34 (<= c_main_~i~6 4)))
 (let (($x58 (<= c_main_~j~6 (+ (* 2 c_main_~i~6) 1))))
 (let ((?x78 (* 2 c_main_~i~6)))
 (let (($x41 (<= c_main_~j~6 ?x78)))
 (let (($x104 (exists ((v_nnf_96 Int) )(let (($x102 (<= v_nnf_96 4)))
 (and (<= (+ v_nnf_96 2) c_main_~k~6) (<= c_main_~j~6 (+ (* 2 v_nnf_96) 2)) $x102)))
 ))
 (let (($x112 (<= c_main_~i~6 2)))
 (and (and $x58 $x34 $x112 $x104 $x41 $x22) (not (and $x58 $x34 $x90 $x22))))))))))))
(check-sat)
